single_objective/SL-DABL/OP/problems/op/OPLib-master/solutions/ea4op/gen1/gr96-gen1-50.sol
NAME : gr96
TYPE : OP
DIMENSION : 96
COST_LIMIT : 27605
ROUTE_NODES : 64
ROUTE_SCORE : 64
ROUTE_COST : 27493
NODE_SEQUENCE_SECTION
1
30
31
32
36
37
38
39
40
41
42
43
49
50
52
51
55
56
57
58
60
62
61
71
72
73
75
74
84
85
86
87
90
89
88
78
77
76
68
67
66
64
27
26
22
21
19
18
20
17
16
15
14
13
12
10
9
8
7
6
5
4
2
29
-1
DEPOT_SECTION
1
-1
EOF
